
Gurobi 7.5.2 (linux64) logging started Sat Jul  7 16:00:40 2018

Changed value of parameter LogFile to result/ilp/simNo_3-n_100-m_40-s_4-minVAF_0.05-cov_10000-k_2-fn_0.15-fp_0.0001-na_0.15.ILP.gurobiSolverLog
   Prev: gurobi.log  Default: 
Changed value of parameter TimeLimit to 86400.0
   Prev: 1e+100  Min: 0.0  Max: 1e+100  Default: 1e+100
Optimize a model with 639293 rows, 10765 columns and 1940420 nonzeros
Variable types: 0 continuous, 10765 integer (10765 binary)
Coefficient statistics:
  Matrix range     [2e-04, 4e+00]
  Objective range  [1e+00, 1e+01]
  Bounds range     [1e+00, 1e+00]
  RHS range        [2e-01, 2e+00]
Found heuristic solution: objective -13737.83355
Presolve removed 131773 rows and 1022 columns (presolve time = 5s) ...
Presolve removed 132350 rows and 1022 columns (presolve time = 14s) ...
Presolve removed 190050 rows and 1599 columns (presolve time = 16s) ...
Presolve removed 190050 rows and 1599 columns (presolve time = 21s) ...
Presolve removed 190050 rows and 1599 columns
Presolve time: 20.54s
Presolved: 449243 rows, 9166 columns, 1349854 nonzeros
Variable types: 0 continuous, 9166 integer (9166 binary)
Presolved: 9166 rows, 458409 columns, 1359020 nonzeros

Presolve removed 9166 rows and 458409 columns

Root simplex log...

Iteration    Objective       Primal Inf.    Dual Inf.      Time
       0    2.2152483e+01   0.000000e+00   6.714500e+04     25s
    6082   -9.1009646e+01   0.000000e+00   1.567469e+05     25s
   28733   -2.7218872e+02   0.000000e+00   9.230000e+02     30s
   29246   -2.7193919e+02   0.000000e+00   0.000000e+00     32s
   29246   -2.7193919e+02   0.000000e+00   0.000000e+00     33s

Root relaxation: objective -2.719392e+02, 29246 iterations, 10.22 seconds
Total elapsed time = 94.76s
Total elapsed time = 136.43s
Total elapsed time = 178.17s

    Nodes    |    Current Node    |     Objective Bounds      |     Work
 Expl Unexpl |  Obj  Depth IntInf | Incumbent    BestBd   Gap | It/Node Time

     0     0 -271.93919    0 1207 -13737.834 -271.93919  98.0%     -  186s
H    0     0                    -504.6489127 -271.93919  46.1%     -  190s
H    0     0                    -352.4777698 -271.93919  22.8%     -  192s
     0     0 -275.66136    0 1220 -352.47777 -275.66136  21.8%     -  239s
H    0     0                    -323.9270391 -275.66136  14.9%     -  251s
     0     0 -278.04298    0 1496 -323.92704 -278.04298  14.2%     -  406s
H    0     0                    -320.2797979 -278.04298  13.2%     -  410s
     0     0 -278.35952    0 1365 -320.27980 -278.35952  13.1%     -  602s
     0     0 -278.59819    0 1195 -320.27980 -278.59819  13.0%     -  623s
     0     0 -278.59819    0 1194 -320.27980 -278.59819  13.0%     -  630s
     0     0 -280.18314    0 1373 -320.27980 -280.18314  12.5%     -  784s
     0     0 -280.23084    0 1514 -320.27980 -280.23084  12.5%     -  817s
     0     0 -280.23084    0 1524 -320.27980 -280.23084  12.5%     -  822s
     0     0 -282.71068    0 1618 -320.27980 -282.71068  11.7%     - 1466s
     0     0 -282.75276    0 1519 -320.27980 -282.75276  11.7%     - 1485s
     0     0 -282.75276    0 1518 -320.27980 -282.75276  11.7%     - 1491s
     0     0 -283.11720    0 1615 -320.27980 -283.11720  11.6%     - 1560s
     0     0 -283.11720    0 1599 -320.27980 -283.11720  11.6%     - 1571s
     0     0 -285.45195    0 1354 -320.27980 -285.45195  10.9%     - 2224s
     0     0 -285.47058    0 1262 -320.27980 -285.47058  10.9%     - 2246s
     0     0 -285.50707    0 1352 -320.27980 -285.50707  10.9%     - 2283s
     0     0 -285.50707    0 1351 -320.27980 -285.50707  10.9%     - 2286s
     0     0 -285.50707    0 1350 -320.27980 -285.50707  10.9%     - 2297s
     0     0 -285.82554    0 1431 -320.27980 -285.82554  10.8%     - 2317s
     0     0 -285.85540    0  995 -320.27980 -285.85540  10.7%     - 2328s
     0     0 -285.86286    0 1346 -320.27980 -285.86286  10.7%     - 2332s
     0     0 -285.86286    0 1350 -320.27980 -285.86286  10.7%     - 2334s
     0     0 -286.07719    0 1442 -320.27980 -286.07719  10.7%     - 2541s
     0     0 -286.28548    0 1454 -320.27980 -286.28548  10.6%     - 2679s
     0     0 -286.48634    0 1470 -320.27980 -286.48634  10.6%     - 2805s
     0     0 -286.48634    0 1482 -320.27980 -286.48634  10.6%     - 2815s
     0     0 -287.62975    0 1435 -320.27980 -287.62975  10.2%     - 3227s
     0     0 -287.64070    0 1444 -320.27980 -287.64070  10.2%     - 3269s
     0     0 -287.66562    0 1424 -320.27980 -287.66562  10.2%     - 3329s
     0     0 -287.66562    0 1421 -320.27980 -287.66562  10.2%     - 3334s
     0     0 -288.38709    0 1424 -320.27980 -288.38709  10.0%     - 3894s
     0     0 -289.41302    0 1413 -320.27980 -289.41302  9.64%     - 4816s
     0     0 -289.45319    0 1474 -320.27980 -289.45319  9.62%     - 4841s
     0     0 -289.46875    0 1468 -320.27980 -289.46875  9.62%     - 4860s
     0     0 -289.46875    0 1471 -320.27980 -289.46875  9.62%     - 4866s
     0     0 -289.75179    0 1439 -320.27980 -289.75179  9.53%     - 4956s
     0     0 -290.06327    0 1424 -320.27980 -290.06327  9.43%     - 5198s
     0     0 -290.35843    0 1454 -320.27980 -290.35843  9.34%     - 5331s
     0     0 -290.43259    0 1478 -320.27980 -290.43259  9.32%     - 5481s
     0     0 -290.44280    0 1483 -320.27980 -290.44280  9.32%     - 5518s
     0     0 -290.44280    0 1484 -320.27980 -290.44280  9.32%     - 5521s
     0     0 -292.74639    0 1442 -320.27980 -292.74639  8.60%     - 18478s
     0     0 -292.96121    0 1484 -320.27980 -292.96121  8.53%     - 18649s
     0     0 -292.96121    0 1488 -320.27980 -292.96121  8.53%     - 18654s
     0     0 -293.79141    0 1418 -320.27980 -293.79141  8.27%     - 19997s
     0     0 -294.01334    0 1440 -320.27980 -294.01334  8.20%     - 20404s
     0     0 -294.07019    0 1417 -320.27980 -294.07019  8.18%     - 20590s
     0     0 -294.07548    0 1417 -320.27980 -294.07548  8.18%     - 20747s
     0     0 -294.08222    0 1513 -320.27980 -294.08222  8.18%     - 20760s
     0     0 -294.08365    0 1513 -320.27980 -294.08365  8.18%     - 20779s
     0     0 -294.34216    0 1433 -320.27980 -294.34216  8.10%     - 21351s
     0     0 -294.50748    0 1424 -320.27980 -294.50748  8.05%     - 21546s
     0     0 -294.52526    0 1435 -320.27980 -294.52526  8.04%     - 21626s
     0     0 -294.52625    0 1428 -320.27980 -294.52625  8.04%     - 21687s
     0     0 -295.55657    0 1388 -320.27980 -295.55657  7.72%     - 24245s
     0     0 -295.64056    0 1410 -320.27980 -295.64056  7.69%     - 24696s
     0     0 -295.79615    0 1426 -320.27980 -295.79615  7.64%     - 25617s
     0     0 -295.80889    0 1519 -320.27980 -295.80889  7.64%     - 25686s
     0     0 -295.80889    0 1518 -320.27980 -295.80889  7.64%     - 25692s
     0     0 -296.41403    0 1448 -320.27980 -296.41403  7.45%     - 28150s
     0     0 -296.51231    0 1450 -320.27980 -296.51231  7.42%     - 28252s
     0     0 -296.52474    0 1446 -320.27980 -296.52474  7.42%     - 28271s
     0     0 -296.53938    0 1447 -320.27980 -296.53938  7.41%     - 28315s
     0     0 -296.54136    0 1444 -320.27980 -296.54136  7.41%     - 28334s
     0     0 -297.67465    0 1444 -320.27980 -297.67465  7.06%     - 35144s
     0     0 -297.83032    0 1360 -320.27980 -297.83032  7.01%     - 35741s
     0     0 -297.89384    0 1440 -320.27980 -297.89384  6.99%     - 35837s
     0     0 -297.90167    0 1444 -320.27980 -297.90167  6.99%     - 35943s
     0     0 -297.90167    0 1444 -320.27980 -297.90167  6.99%     - 35946s
     0     0 -298.69236    0 1329 -320.27980 -298.69236  6.74%     - 48043s
     0     0 -298.83784    0 1410 -320.27980 -298.83784  6.69%     - 48506s
     0     0 -298.87667    0 1419 -320.27980 -298.87667  6.68%     - 48660s
     0     0 -298.88455    0 1426 -320.27980 -298.88455  6.68%     - 48706s
     0     0 -298.89064    0 1429 -320.27980 -298.89064  6.68%     - 48727s
     0     0 -298.89064    0 1429 -320.27980 -298.89064  6.68%     - 48731s
     0     0 -299.45024    0 1338 -320.27980 -299.45024  6.50%     - 50804s
     0     0 -299.66017    0 1343 -320.27980 -299.66017  6.44%     - 51041s
     0     0 -299.66429    0 1340 -320.27980 -299.66429  6.44%     - 51047s
     0     0 -299.67089    0 1346 -320.27980 -299.67089  6.43%     - 51056s
     0     0 -299.68702    0 1348 -320.27980 -299.68702  6.43%     - 51082s
     0     0 -299.68702    0 1349 -320.27980 -299.68702  6.43%     - 51085s
     0     0 -299.72222    0 1347 -320.27980 -299.72222  6.42%     - 51150s
     0     0 -299.76978    0 1360 -320.27980 -299.76978  6.40%     - 51212s
     0     0 -299.88469    0 1371 -320.27980 -299.88469  6.37%     - 51404s
     0     0 -299.88655    0 1372 -320.27980 -299.88655  6.37%     - 51423s
     0     0 -300.22498    0 1449 -320.27980 -300.22498  6.26%     - 51904s
     0     0 -300.39864    0 1399 -320.27980 -300.39864  6.21%     - 52114s
     0     0 -300.41873    0 1399 -320.27980 -300.41873  6.20%     - 52135s
     0     0 -300.42243    0 1366 -320.27980 -300.42243  6.20%     - 52159s
     0     0 -300.42243    0 1367 -320.27980 -300.42243  6.20%     - 52162s
     0     0 -300.89948    0 1408 -320.27980 -300.89948  6.05%     - 54008s
     0     0 -300.99662    0 1366 -320.27980 -300.99662  6.02%     - 54083s
     0     0 -301.11117    0 1439 -320.27980 -301.11117  5.98%     - 54109s
     0     0 -301.11156    0 1447 -320.27980 -301.11156  5.98%     - 54160s
     0     0 -301.70632    0 1462 -320.27980 -301.70632  5.80%     - 56318s
     0     0 -301.73430    0 1467 -320.27980 -301.73430  5.79%     - 56376s
     0     0 -301.81359    0 1463 -320.27980 -301.81359  5.77%     - 56517s
     0     0 -301.81359    0 1462 -320.27980 -301.81359  5.77%     - 56523s
     0     0 -301.91209    0 1453 -320.27980 -301.91209  5.73%     - 56844s
     0     0 -302.10120    0 1451 -320.27980 -302.10120  5.68%     - 57510s
     0     0 -302.17605    0 1374 -320.27980 -302.17605  5.65%     - 57990s
     0     0 -302.21154    0 1372 -320.27980 -302.21154  5.64%     - 58034s
     0     0 -302.22151    0 1375 -320.27980 -302.22151  5.64%     - 58075s
     0     0 -302.22247    0 1376 -320.27980 -302.22247  5.64%     - 58098s
     0     0 -302.66739    0 1357 -320.27980 -302.66739  5.50%     - 59672s
     0     0 -302.71990    0 1374 -320.27980 -302.71990  5.48%     - 59770s
     0     0 -302.72044    0 1374 -320.27980 -302.72044  5.48%     - 59790s
     0     0 -302.75300    0 1375 -320.27980 -302.75300  5.47%     - 59914s
     0     0 -302.75843    0 1378 -320.27980 -302.75843  5.47%     - 59957s
     0     0 -302.83105    0 1379 -320.27980 -302.83105  5.45%     - 60010s
     0     0 -302.83677    0 1379 -320.27980 -302.83677  5.45%     - 60023s
     0     0 -302.83677    0 1380 -320.27980 -302.83677  5.45%     - 60027s
     0     0 -303.25841    0 1363 -320.27980 -303.25841  5.31%     - 61303s
     0     0 -303.33416    0 1364 -320.27980 -303.33416  5.29%     - 61400s
     0     0 -303.33548    0 1364 -320.27980 -303.33548  5.29%     - 61403s
     0     0 -303.36377    0 1371 -320.27980 -303.36377  5.28%     - 61418s
     0     0 -303.47444    0 1370 -320.27980 -303.47444  5.25%     - 62757s
     0     0 -303.47444    0 1373 -320.27980 -303.47444  5.25%     - 62759s
     0     0 -303.47823    0 1403 -320.27980 -303.47823  5.25%     - 62768s
     0     0 -303.47823    0 1403 -320.27980 -303.47823  5.25%     - 62784s
     0     0 -303.68403    0 1381 -320.27980 -303.68403  5.18%     - 62850s
     0     0 -303.81742    0 1365 -320.27980 -303.81742  5.14%     - 63067s
     0     0 -303.87507    0 1357 -320.27980 -303.87507  5.12%     - 63139s
     0     0 -303.89846    0 1361 -320.27980 -303.89846  5.11%     - 63180s
     0     0 -303.90346    0 1358 -320.27980 -303.90346  5.11%     - 63195s
     0     0 -303.90518    0 1363 -320.27980 -303.90518  5.11%     - 63200s
     0     0 -304.08460    0 1352 -320.27980 -304.08460  5.06%     - 63355s
     0     0 -304.24108    0 1451 -320.27980 -304.24108  5.01%     - 63646s
     0     0 -304.24450    0 1450 -320.27980 -304.24450  5.01%     - 63650s
     0     0 -304.24450    0 1451 -320.27980 -304.24450  5.01%     - 63652s
     0     0 -304.33117    0 1448 -320.27980 -304.33117  4.98%     - 63704s
     0     0 -304.35505    0 1355 -320.27980 -304.35505  4.97%     - 63738s
     0     0 -304.35505    0 1355 -320.27980 -304.35505  4.97%     - 63740s
     0     0 -304.37157    0 1444 -320.27980 -304.37157  4.97%     - 63752s
     0     0 -304.38715    0 1350 -320.27980 -304.38715  4.96%     - 63771s
     0     0 -304.38715    0 1351 -320.27980 -304.38715  4.96%     - 63773s
     0     0 -304.42098    0 1442 -320.27980 -304.42098  4.95%     - 63797s
     0     0 -304.42953    0 1358 -320.27980 -304.42953  4.95%     - 63833s
     0     0 -304.42960    0 1358 -320.27980 -304.42960  4.95%     - 63840s
     0     0 -304.42960    0 1358 -320.27980 -304.42960  4.95%     - 63848s
     0     0 -304.42960    0 1363 -320.27980 -304.42960  4.95%     - 63857s
     0     0 -304.42960    0 1341 -320.27980 -304.42960  4.95%     - 64311s
     0     0 -304.42960    0 1338 -320.27980 -304.42960  4.95%     - 64347s
     0     2 -304.43038    0 1338 -320.27980 -304.43038  4.95%     - 64478s
     1     3 -304.56815    1 1325 -320.27980 -304.43038  4.95%  3010 64483s
     3     5 -304.67186    3 1320 -320.27980 -304.43038  4.95%  1265 64486s
     5     7 -307.79017    4 1095 -320.27980 -304.43038  4.95%  1393 64497s
     6     8 -306.25544    5 1117 -320.27980 -304.43038  4.95%  1397 64503s
     7     9 -307.56774    6  890 -320.27980 -304.43038  4.95%  1345 64507s
     8    10 -310.53113    7  873 -320.27980 -304.43038  4.95%  1223 64516s
     9    11 -314.17837    8  851 -320.27980 -304.43038  4.95%  1134 64524s
    10    12 -317.14175    9  855 -320.27980 -304.43038  4.95%  1048 64525s
    15    11 -305.65421    1 1219 -320.27980 -304.57546  4.90%  1247 64580s
    16    12 -307.08052    2  921 -320.27980 -304.57546  4.90%  1525 64643s
    17    13 -309.92537    3  916 -320.27980 -304.57546  4.90%  2958 64885s
    18    14 -310.83718    3  945 -320.27980 -304.57546  4.90%  5156 65482s
    19    15 -319.95528    4  727 -320.27980 -304.57546  4.90%  8711 67247s
    20    14     cutoff    5      -320.27980 -304.57546  4.90%  8543 67354s
    21    13     cutoff    5      -320.27980 -304.57546  4.90%  9142 67773s
    22    14 -311.97694    4  941 -320.27980 -304.57546  4.90%  9225 67985s
    23    15 -318.13166    5  744 -320.27980 -304.57546  4.90% 10599 68881s
    24    16 -314.02851    5 1008 -320.27980 -304.57546  4.90% 12201 70343s
    25    17 -319.95528    6  832 -320.27980 -304.57546  4.90% 14337 72063s
    26    16     cutoff    7      -320.27980 -304.57546  4.90% 13813 72070s
    28    14     cutoff    6      -320.27980 -304.57546  4.90% 14212 72835s
    29    15 -314.94032    6  915 -320.27980 -304.57546  4.90% 14124 73067s
    30    16 -317.21985    7  879 -320.27980 -304.57546  4.90% 14219 73405s
    31    15     cutoff    8      -320.27980 -304.57546  4.90% 14281 73700s
    32    16 -319.95528    8  843 -320.27980 -304.57546  4.90% 14515 74157s
    34    14     cutoff    9      -320.27980 -304.57546  4.90% 13678 74162s
    35    15 -318.13166    7  852 -320.27980 -304.57546  4.90% 14569 75132s
    36    16 -319.04347    8  840 -320.27980 -304.57546  4.90% 14189 75149s
    37    15     cutoff    8      -320.27980 -304.57546  4.90% 13822 75154s
    38    16 -319.04347    9  857 -320.27980 -304.57546  4.90% 13460 75155s
    39    17 -319.95528   10  853 -320.27980 -304.57546  4.90% 13134 75162s
    40    16     cutoff   10      -320.27980 -304.57546  4.90% 13573 75683s
    41    15     cutoff   11      -320.27980 -304.57546  4.90% 13255 75687s
    42    14     cutoff   11      -320.27980 -304.57546  4.90% 12953 75691s
    43    13     cutoff    9      -320.27980 -304.57546  4.90% 13290 76174s
    44    14 -308.53119    2 1067 -320.27980 -304.58075  4.90% 13885 76995s
    45    15 -310.07445    3  853 -320.27980 -304.58075  4.90% 14401 77870s
    46    16 -313.72169    4  894 -320.27980 -304.58075  4.90% 15400 79358s

Cutting planes:
  Gomory: 2
  Zero half: 308

Explored 47 nodes (2859045 simplex iterations) in 86400.27 seconds
Thread count was 1 (of 80 available processors)

Solution count 5: -320.28 -323.927 -352.478 ... -13737.8

Time limit reached
Best objective -3.202797979202e+02, best bound -3.045807538054e+02, gap 4.9017%
